<number of tasks>
250

<cycle time>
1000

<order strength>
0.596


<task times>
1 508
2 682
3 386
4 595
5 593
6 614
7 592
8 562
9 209
10 436
11 420
12 233
13 346
14 626
15 697
16 621
17 471
18 422
19 522
20 314
21 574
22 563
23 810
24 371
25 514
26 515
27 337
28 379
29 531
30 602
31 376
32 484
33 573
34 447
35 225
36 481
37 554
38 482
39 487
40 763
41 429
42 365
43 438
44 392
45 616
46 490
47 571
48 678
49 651
50 585
51 622
52 488
53 395
54 556
55 377
56 577
57 451
58 516
59 308
60 432
61 610
62 467
63 603
64 480
65 586
66 490
67 374
68 527
69 506
70 505
71 348
72 583
73 606
74 470
75 452
76 318
77 714
78 304
79 406
80 190
81 499
82 539
83 387
84 508
85 500
86 515
87 575
88 683
89 713
90 578
91 368
92 731
93 372
94 392
95 586
96 363
97 622
98 390
99 415
100 407
101 428
102 692
103 584
104 545
105 479
106 715
107 591
108 697
109 365
110 308
111 385
112 453
113 448
114 731
115 525
116 698
117 401
118 459
119 424
120 667
121 397
122 460
123 423
124 490
125 566
126 303
127 431
128 440
129 462
130 302
131 399
132 510
133 368
134 602
135 619
136 334
137 575
138 541
139 416
140 372
141 470
142 624
143 587
144 461
145 616
146 410
147 360
148 516
149 544
150 687
151 417
152 311
153 404
154 579
155 360
156 597
157 401
158 440
159 482
160 671
161 462
162 545
163 431
164 309
165 301
166 700
167 541
168 434
169 584
170 670
171 478
172 577
173 501
174 355
175 404
176 289
177 434
178 549
179 518
180 494
181 422
182 453
183 701
184 331
185 411
186 749
187 627
188 603
189 637
190 354
191 372
192 480
193 579
194 446
195 625
196 678
197 511
198 647
199 582
200 516
201 316
202 616
203 487
204 460
205 459
206 604
207 685
208 598
209 584
210 518
211 609
212 461
213 357
214 532
215 625
216 518
217 483
218 458
219 422
220 450
221 588
222 548
223 525
224 509
225 451
226 399
227 597
228 492
229 312
230 474
231 515
232 426
233 511
234 656
235 302
236 276
237 355
238 626
239 367
240 182
241 420
242 405
243 361
244 628
245 455
246 288
247 596
248 838
249 359
250 647

<precedence relations>
1,9
2,7
2,11
2,18
3,8
3,10
3,11
3,16
4,26
5,10
5,16
6,10
6,11
7,12
8,13
9,16
10,14
10,15
10,17
10,18
10,19
10,20
10,21
11,74
11,85
12,26
13,27
14,23
15,22
15,25
15,26
15,27
15,28
16,176
17,24
17,27
17,28
18,25
18,26
19,25
19,27
19,45
20,25
21,25
22,30
23,32
24,31
25,29
25,32
25,33
25,43
25,52
26,33
26,41
27,32
27,33
27,34
28,32
28,34
29,35
30,36
31,37
32,102
33,42
34,38
34,39
35,41
36,40
37,45
38,42
38,44
39,43
39,67
39,95
39,96
40,46
41,47
41,48
41,49
41,53
42,48
42,49
42,50
42,51
43,115
43,195
44,52
44,53
45,50
45,51
46,55
47,54
48,56
48,57
48,58
49,102
50,57
50,73
51,59
52,57
52,58
52,59
53,57
53,114
54,60
55,61
56,63
57,62
58,64
58,65
58,66
58,67
59,64
59,66
60,68
61,69
62,71
63,72
64,70
64,72
65,72
65,73
65,84
65,97
66,72
66,73
66,74
67,73
67,92
67,97
68,75
69,76
70,78
71,79
72,77
72,82
72,85
72,86
73,80
73,81
74,81
74,83
74,84
74,86
75,91
76,88
77,89
78,91
79,90
80,87
80,181
81,104
81,137
82,111
82,206
83,92
83,96
83,97
83,114
84,93
84,115
84,127
84,137
85,91
86,91
86,94
86,95
86,121
87,98
88,99
89,100
90,102
91,102
91,103
91,104
91,137
92,101
92,102
92,103
93,116
94,103
94,117
94,139
94,141
95,116
96,194
97,104
97,126
97,148
98,105
99,108
100,106
101,107
102,108
102,148
103,109
103,111
104,108
104,110
104,170
105,114
106,113
107,112
108,116
108,181
109,133
110,115
110,117
110,127
110,181
110,195
111,155
111,242
112,119
113,120
114,121
115,118
115,120
115,122
115,123
115,207
116,120
116,132
117,134
117,156
117,207
118,125
119,124
120,128
120,129
121,126
121,127
121,128
121,129
122,176
122,217
122,228
123,139
123,218
124,130
125,131
126,131
126,132
126,133
127,134
127,135
128,133
128,135
128,154
128,155
128,218
129,140
130,137
131,136
131,139
131,140
131,141
131,149
132,164
132,195
132,247
133,138
133,190
134,179
134,192
135,192
135,217
136,142
137,145
137,148
137,149
137,163
138,143
138,146
138,147
139,144
139,146
140,150
140,178
140,192
142,154
143,151
144,152
145,153
146,156
146,157
147,229
148,192
149,157
150,155
150,157
151,160
152,159
153,161
154,158
155,176
155,194
155,237
155,241
156,163
156,191
157,162
157,164
158,165
159,166
160,167
161,170
162,168
162,169
162,171
163,215
163,227
164,235
165,172
166,174
167,178
168,175
169,173
169,176
169,179
169,180
170,177
170,181
172,183
173,185
174,184
175,187
176,182
176,188
177,186
177,195
179,189
179,191
179,194
180,193
181,190
181,192
182,198
183,199
184,200
185,197
186,201
187,202
188,203
189,205
190,196
190,204
190,242
192,236
193,206
195,207
196,208
197,209
198,211
199,212
200,210
201,215
202,213
203,216
204,214
205,215
206,216
206,217
207,218
208,220
209,219
210,221
211,223
212,225
213,226
214,222
215,224
215,228
216,229
216,236
217,227
219,235
220,230
221,231
222,232
223,236
224,233
225,235
226,234
227,237
228,238
230,239
231,240
232,241
233,241
234,241
236,243
236,244
236,246
238,242
239,246
240,245
242,247
242,249
244,248
244,250

<end>
